c colouring generated by benchmark framework
p edge 500 58862
v 1 8
v 2 12
v 3 81
v 4 36
v 5 81
v 6 56
v 7 85
v 8 45
v 9 47
v 10 26
v 11 7
v 12 76
v 13 56
v 14 90
v 15 78
v 16 17
v 17 118
v 18 92
v 19 96
v 20 91
v 21 10
v 22 44
v 23 81
v 24 40
v 25 112
v 26 41
v 27 31
v 28 58
v 29 58
v 30 108
v 31 47
v 32 72
v 33 4
v 34 23
v 35 26
v 36 89
v 37 72
v 38 66
v 39 26
v 40 12
v 41 110
v 42 14
v 43 24
v 44 111
v 45 71
v 46 98
v 47 4
v 48 23
v 49 13
v 50 13
v 51 122
v 52 103
v 53 0
v 54 67
v 55 31
v 56 74
v 57 0
v 58 65
v 59 46
v 60 76
v 61 52
v 62 10
v 63 66
v 64 95
v 65 77
v 66 74
v 67 87
v 68 125
v 69 16
v 70 117
v 71 2
v 72 80
v 73 20
v 74 57
v 75 30
v 76 35
v 77 14
v 78 125
v 79 48
v 80 90
v 81 97
v 82 9
v 83 54
v 84 125
v 85 69
v 86 61
v 87 44
v 88 69
v 89 17
v 90 69
v 91 107
v 92 82
v 93 48
v 94 100
v 95 29
v 96 20
v 97 57
v 98 19
v 99 83
v 100 12
v 101 38
v 102 94
v 103 46
v 104 16
v 105 9
v 106 79
v 107 70
v 108 16
v 109 82
v 110 35
v 111 104
v 112 44
v 113 13
v 114 54
v 115 127
v 116 94
v 117 119
v 118 27
v 119 62
v 120 41
v 121 39
v 122 112
v 123 83
v 124 84
v 125 69
v 126 29
v 127 2
v 128 4
v 129 11
v 130 8
v 131 85
v 132 107
v 133 105
v 134 87
v 135 23
v 136 98
v 137 30
v 138 5
v 139 101
v 140 21
v 141 71
v 142 40
v 143 57
v 144 96
v 145 68
v 146 50
v 147 64
v 148 0
v 149 74
v 150 23
v 151 93
v 152 54
v 153 35
v 154 43
v 155 103
v 156 10
v 157 99
v 158 110
v 159 111
v 160 52
v 161 21
v 162 28
v 163 86
v 164 45
v 165 50
v 166 117
v 167 115
v 168 55
v 169 88
v 170 32
v 171 33
v 172 114
v 173 22
v 174 115
v 175 41
v 176 91
v 177 128
v 178 63
v 179 62
v 180 9
v 181 30
v 182 21
v 183 5
v 184 11
v 185 25
v 186 51
v 187 16
v 188 56
v 189 36
v 190 21
v 191 103
v 192 48
v 193 13
v 194 14
v 195 106
v 196 75
v 197 39
v 198 121
v 199 86
v 200 51
v 201 18
v 202 89
v 203 3
v 204 4
v 205 102
v 206 122
v 207 25
v 208 111
v 209 18
v 210 22
v 211 24
v 212 55
v 213 88
v 214 95
v 215 120
v 216 28
v 217 46
v 218 75
v 219 73
v 220 17
v 221 20
v 222 106
v 223 7
v 224 6
v 225 12
v 226 79
v 227 33
v 228 1
v 229 88
v 230 114
v 231 6
v 232 94
v 233 1
v 234 49
v 235 17
v 236 20
v 237 73
v 238 95
v 239 0
v 240 22
v 241 90
v 242 36
v 243 6
v 244 34
v 245 42
v 246 121
v 247 39
v 248 7
v 249 99
v 250 70
v 251 31
v 252 1
v 253 94
v 254 83
v 255 39
v 256 123
v 257 90
v 258 112
v 259 29
v 260 30
v 261 39
v 262 92
v 263 34
v 264 51
v 265 100
v 266 80
v 267 85
v 268 72
v 269 113
v 270 125
v 271 2
v 272 45
v 273 17
v 274 15
v 275 51
v 276 54
v 277 37
v 278 128
v 279 19
v 280 6
v 281 59
v 282 76
v 283 6
v 284 2
v 285 61
v 286 78
v 287 58
v 288 78
v 289 61
v 290 71
v 291 36
v 292 33
v 293 43
v 294 71
v 295 42
v 296 2
v 297 105
v 298 123
v 299 53
v 300 3
v 301 79
v 302 49
v 303 62
v 304 7
v 305 91
v 306 98
v 307 76
v 308 18
v 309 1
v 310 5
v 311 76
v 312 52
v 313 58
v 314 60
v 315 120
v 316 65
v 317 16
v 318 26
v 319 22
v 320 3
v 321 8
v 322 29
v 323 57
v 324 69
v 325 99
v 326 31
v 327 64
v 328 102
v 329 31
v 330 93
v 331 126
v 332 59
v 333 85
v 334 124
v 335 40
v 336 37
v 337 82
v 338 60
v 339 79
v 340 78
v 341 59
v 342 107
v 343 86
v 344 109
v 345 117
v 346 115
v 347 96
v 348 38
v 349 55
v 350 109
v 351 93
v 352 65
v 353 32
v 354 108
v 355 64
v 356 95
v 357 116
v 358 64
v 359 108
v 360 14
v 361 80
v 362 60
v 363 66
v 364 102
v 365 110
v 366 45
v 367 62
v 368 42
v 369 89
v 370 28
v 371 50
v 372 32
v 373 104
v 374 119
v 375 10
v 376 101
v 377 96
v 378 23
v 379 36
v 380 68
v 381 15
v 382 75
v 383 122
v 384 15
v 385 115
v 386 124
v 387 118
v 388 37
v 389 4
v 390 24
v 391 75
v 392 59
v 393 66
v 394 112
v 395 79
v 396 66
v 397 127
v 398 59
v 399 8
v 400 60
v 401 61
v 402 67
v 403 27
v 404 55
v 405 117
v 406 105
v 407 5
v 408 11
v 409 101
v 410 15
v 411 63
v 412 25
v 413 37
v 414 3
v 415 123
v 416 40
v 417 97
v 418 22
v 419 48
v 420 116
v 421 21
v 422 12
v 423 27
v 424 9
v 425 34
v 426 119
v 427 42
v 428 77
v 429 46
v 430 4
v 431 119
v 432 67
v 433 121
v 434 51
v 435 19
v 436 33
v 437 112
v 438 70
v 439 45
v 440 97
v 441 12
v 442 87
v 443 104
v 444 63
v 445 50
v 446 49
v 447 67
v 448 99
v 449 3
v 450 19
v 451 118
v 452 113
v 453 93
v 454 13
v 455 126
v 456 97
v 457 73
v 458 47
v 459 44
v 460 102
v 461 124
v 462 87
v 463 11
v 464 31
v 465 104
v 466 53
v 467 114
v 468 17
v 469 1
v 470 24
v 471 27
v 472 86
v 473 29
v 474 100
v 475 68
v 476 15
v 477 34
v 478 84
v 479 84
v 480 43
v 481 127
v 482 14
v 483 81
v 484 87
v 485 0
v 486 74
v 487 92
v 488 32
v 489 38
v 490 89
v 491 77
v 492 91
v 493 49
v 494 28
v 495 18
v 496 44
v 497 53
v 498 110
v 499 35
v 500 53
